54407
0 1 1 0 1 1 1 1 1 0 0 0 1 0 0 1 1 0 1 1 1 1 0 0 0 1 0 0 1 1 
18 18 18 18 18 18 18 18 18 18 4 4 4 1 4 18 1 1 18 18 4 18 1 1 1 18 1 4 4 1 4 4 4 1 4 4 1 1 1 16 16 4 4 4 8 8 8 16 8 8 16 16 16 16 8 8 16 8 16 16 8 16 16 8 8 16 8 8 28 28 28 28 28 28 28 28 28 28 20 28 20 20 20 25 20 20 28 20 25 25 25 25 25 25 20 20 25 25 20 25 20 15 25 25 20 15 25 15 15 1 19 19 19 19 19 19 19 25 19 19 19 19 19 6 6 15 15 6 6 6 6 15 6 6 15 6 15 6 6 6 12 15 12 12 12 1 15 21 21 12 21 21 21 21 6 12 21 21 21 21 21 21 12 12 21 12 5 12 5 21 5 5 12 5 5 5 5 5 29 5 5 2 2 29 29 29 2 2 2 2 2 21 29 29 7 7 7 2 2 29 
